n = 42;
k = 4;
roles = [
{f, m},
{f, m},
{d, f},
{d, f},
{m, g},
{g, d},
{g, m},
{m, d},
{m, f},
{g, m},
{m, g},
{m, g},
{d, f},
{f, g},
{g, m},
{f, m},
{g, f},
{d, f},
{d, f},
{d, g},
{m, d},
{d, m},
{g, m},
{f, g},
{m, f},
{m, f},
{d, g},
{f, d},
{f, m},
{d, g},
{f, m},
{g, d},
{g, f},
{m, f},
{g, f},
{g, m},
{f, d},
{g, d},
{g, f},
{f, d},
{d, f},
{m, f}
];
num_pairs = 3;
player1 = [9, 11, 26];
player2 = [20, 7, 23];
